# Solution for model r3_t27_m7_9
# Finished Task: 24 / 27
# Makespan: 994.0, Total Distance: 976.0, Total Time: 1.5640
# R O S F
0 0 20 0.0 0.0
1 1 17 0.0 0.0
2 2 16 0.0 0.0
3 0 27 609.0 642.0
4 2 26 921.0 954.0
5 2 4 857.0 894.0
6 -1 -1 -1.0 -1.0
7 1 25 810.0 832.0
8 -1 -1 -1.0 -1.0
9 2 15 648.0 687.0
10 0 3 521.0 546.0
11 -1 -1 -1.0 -1.0
12 1 28 647.0 679.0
13 2 9 586.0 622.0
14 1 7 735.0 769.0
15 2 19 687.0 723.0
16 2 13 489.0 521.0
17 1 18 367.0 401.0
18 1 22 566.0 586.0
19 2 29 743.0 766.0
20 0 10 458.0 489.0
21 0 24 789.0 818.0
22 1 12 610.0 647.0
23 0 21 753.0 777.0
24 0 -1 849.0 884.0
25 1 -1 939.0 971.0
26 2 -1 972.0 994.0
27 0 23 677.0 712.0
28 1 14 692.0 723.0
29 2 5 790.0 814.0
